p cnf 64 101                
2 28 0
1 28 0
-2 -1 -28 0
28 -32 0
-1 29 0
-2 29 0
1 2 -29 0
29 30 0
3 30 0
-29 -3 -30 0
30 -32 0
-3 31 0
-29 31 0
3 29 -31 0
31 -32 0
-28 -30 -31 32 0
-32 1 -33 0
32 7 -33 0
1 7 -33 0
33 36 0
-4 36 0
-32 2 -34 0
32 8 -34 0
2 8 -34 0
34 37 0
-5 37 0
-32 3 -35 0
32 9 -35 0
3 9 -35 0
35 38 0
-6 38 0
-36 -37 -38 39 0
-39 -40 0
-5 -4 -10 0
10 -14 0
-4 11 0
-5 11 0
4 5 -11 0
-11 -6 -12 0
12 -14 0
6 11 -13 0
13 -14 0
14 -40 0
-8 -7 -15 0
15 -19 0
-7 16 0
-8 16 0
7 8 -16 0
-16 -9 -17 0
17 -19 0
9 16 -18 0
18 -19 0
19 -40 0
-4 1 -20 0
20 -23 0
-5 2 -21 0
21 -23 0
-6 3 -22 0
22 -23 0
23 -40 0
-1 4 -24 0
24 -27 0
-2 5 -25 0
25 -27 0
-3 6 -26 0
26 -27 0
27 -40 0
-1 2 -41 0
41 -51 0
-1 -2 42 0
1 2 42 0
-2 2 42 0
-4 5 -43 0
-42 43 -44 0
44 -51 0
-4 -5 45 0
4 5 45 0
-5 5 45 0
-42 -45 46 0
-7 8 -47 0
-46 47 -48 0
48 -51 0
51 -63 0
-2 3 -52 0
52 -62 0
-2 -3 53 0
2 3 53 0
-3 3 53 0
-5 6 -54 0
-53 54 -55 0
55 -62 0
-5 -6 56 0
5 6 56 0
-6 6 56 0
-53 -56 57 0
-8 9 -58 0
-57 58 -59 0
59 -62 0
62 -63 0
40 0
63 0
